
--- Job Untitled_6.gms Start 06/27/22 15:51:06 39.2.0 e0c5072f WEX-WEI x86 64bit/MS Windows
--- Applying:
    C:\GAMS\39\gmsprmNT.txt
--- GAMS Parameters defined
    Input C:\projects\OptimizationModels\MaxCut\Untitled_6.gms
    PageWidth 130
    PageSize 0
    PageContr 3
    Action CE
    ScrDir C:\projects\OptimizationModels\MaxCut\225g\
    SysDir C:\GAMS\39\
    WorkDir C:\projects\OptimizationModels\MaxCut\
    LogOption 3
    DFormat 0
    TFormat 0
    ErrorLog 99
    IDE 1
Licensee: Eval License                                   G211206|0002CO-GEN
          Amsterdam Optimization Modeling Group,                     DCE378
          C:\Users\erwin\Documents\GAMS\gamslice.txt
          License Admin: Erwin Kalvelagen, info@amsterdamoptimization.com  
          Evaluation license: Not for commercial or production use
Processor information: 1 socket(s), 8 core(s), and 16 thread(s) available
GAMS 39.2.0   Copyright (C) 1987-2022 GAMS Development. All rights reserved
--- Starting compilation
--- Untitled_6.gms(31) 3 Mb
--- $echo File C:\projects\OptimizationModels\MaxCut\cplex.opt
--- Untitled_6.gms(34) 3 Mb
--- Starting execution: elapsed 0:00:00.058
--- Untitled_6.gms(26) 4 Mb
--- Generating MIQCP model mod
--- Untitled_6.gms(27) 6 Mb
---   101 rows  301 columns  601 non-zeroes
---   11,642 nl-code  300 nl-non-zeroes
---   300 discrete-columns
--- Range statistics (absolute non-zero finite values)
--- RHS       [min, max] : [ 1.000E+00, 1.000E+00] - Zero values observed as well
--- Bound     [min, max] : [ 1.000E+00, 1.000E+00] - Zero values observed as well
--- Matrix    [min, max] : [ 1.000E+00, 1.000E+00] - Zero values observed as well
--- Untitled_6.gms(27) 4 Mb
--- Executing CPLEX (Solvelink=2): elapsed 0:00:00.064

IBM ILOG CPLEX   39.2.0 e0c5072f Jun 2, 2022           WEI x86 64bit/MS Window

--- GAMS/Cplex Link licensed for continuous and discrete problems.

Reading parameter(s) from "C:\projects\OptimizationModels\MaxCut\cplex.opt"
>>  *mipemphasis 3
>>  cuts 5
Finished reading from "C:\projects\OptimizationModels\MaxCut\cplex.opt"

--- GMO setup time: 0.00s
--- GMO memory 0.68 Mb (peak 0.70 Mb)
--- Dictionary memory 0.00 Mb
--- Cplex 22.1.0.0 link memory 0.01 Mb (peak 0.07 Mb)
--- Starting Cplex

Version identifier: 22.1.0.0 | 2022-03-09 | 1a383f8ce
CPXPARAM_Advance                                 0
CPXPARAM_MIP_Cuts_Cliques                        3
CPXPARAM_MIP_Cuts_Covers                         3
CPXPARAM_MIP_Display                             4
CPXPARAM_MIP_Cuts_FlowCovers                     2
CPXPARAM_MIP_Cuts_Implied                        2
CPXPARAM_MIP_Cuts_GUBCovers                      2
CPXPARAM_MIP_Cuts_Gomory                         2
CPXPARAM_MIP_Cuts_PathCut                        2
CPXPARAM_MIP_Cuts_MIRCut                         2
CPXPARAM_MIP_Cuts_Disjunctive                    3
CPXPARAM_Preprocessing_Symmetry                  5
CPXPARAM_MIP_Pool_Capacity                       0
CPXPARAM_MIP_Cuts_ZeroHalfCut                    2
CPXPARAM_MIP_Cuts_MCFCut                         2
CPXPARAM_MIP_Cuts_LiftProj                       3
CPXPARAM_MIP_Cuts_LocalImplied                   3
CPXPARAM_MIP_Cuts_BQP                            3
CPXPARAM_MIP_Tolerances_AbsMIPGap                0
Generic callback                                 0x50
Found incumbent of value 418.469479 after 0.00 sec. (0.05 ticks)
Tried aggregator 1 time.
MIP Presolve eliminated 0 rows and 1 columns.
MIP Presolve added 2910 rows and 1455 columns.
Reduced MIP has 3010 rows, 1755 columns, and 6120 nonzeros.
Reduced MIP has 1755 binaries, 0 generals, 0 SOSs, and 0 indicators.
Presolve time = 0.00 sec. (0.56 ticks)
Probing time = 0.00 sec. (0.58 ticks)
Tried aggregator 1 time.
Detecting symmetries...
MIP Presolve eliminated 1455 rows and 0 columns.
Reduced MIP has 1555 rows, 1755 columns, and 4665 nonzeros.
Reduced MIP has 1755 binaries, 0 generals, 0 SOSs, and 0 indicators.
Presolve time = 0.00 sec. (4.94 ticks)
Classifier predicts products in MIQP should be linearized.
Probing time = 0.00 sec. (0.49 ticks)
Clique table members: 100.
MIP emphasis: balance optimality and feasibility.
MIP search method: dynamic search.
Parallel mode: deterministic, using up to 16 threads.
Parallel mode: deterministic, using up to 3 threads for parallel tasks at root LP.
Parallel mode: deterministic, using up to 13 threads for concurrent optimization:
 * Starting dual Simplex on 1 thread...
 * Starting Barrier on 11 threads...
 * Starting primal Simplex on 1 thread...
Tried aggregator 1 time.
No LP presolve or aggregator reductions.
Presolve time = 0.00 sec. (0.68 ticks)
Initializing dual steep norms . . .

Iteration log . . .
Iteration:     1   Dual objective     =             0.000000
Perturbation started.
Iteration:   101   Dual objective     =             0.000000
Removing perturbation.

Dual simplex solved model.

Root relaxation solution time = 0.02 sec. (3.96 ticks)

        Nodes                                         Cuts/
   Node  Left     Objective  IInf  Best Integer    Best Bound    ItCnt     Gap

*     0+    0                          418.4695        0.0000           100.00%
Found incumbent of value 418.469479 after 0.02 sec. (13.39 ticks)
*     0+    0                           82.8071        0.0000           100.00%
Found incumbent of value 82.807106 after 0.02 sec. (13.40 ticks)
      0     0        0.0000   200       82.8071        0.0000      102  100.00%
      0     0        0.0000   218       82.8071 ZeroHalf: 191      256  100.00%
      0     0        0.0000   266       82.8071     Cuts: 407      446   90.84%
      0     2        0.1061   249       82.8071        7.5866      472   90.84%
Elapsed time = 1.38 sec. (1273.13 ticks, tree = 0.02 MB)
   1446  1222       62.5666   114       82.8071        7.5866    66297   90.84%
                                                 ZeroHalf: 74                  
   3731  3399       19.2723   244       82.8071        7.5866   152628   90.84%

Performing restart 1

Repeating presolve.
Tried aggregator 2 times.
MIP Presolve eliminated 21 rows and 23 columns.
Aggregator did 10 substitutions.
Reduced MIP has 1524 rows, 1722 columns, and 4572 nonzeros.
Reduced MIP has 1722 binaries, 0 generals, 0 SOSs, and 0 indicators.
Presolve time = 0.00 sec. (3.83 ticks)
Tried aggregator 1 time.
Reduced MIP has 1524 rows, 1722 columns, and 4572 nonzeros.
Reduced MIP has 1722 binaries, 0 generals, 0 SOSs, and 0 indicators.
Presolve time = 0.02 sec. (3.95 ticks)
Represolve time = 0.02 sec. (12.85 ticks)
Tried aggregator 1 time.
LP Presolve eliminated 2 rows and 0 columns.
Reduced LP has 1753 rows, 1722 columns, and 6034 nonzeros.
Presolve time = 0.00 sec. (0.97 ticks)
Initializing dual steep norms . . .

Iteration log . . .
Iteration:     1   Dual objective     =             0.000000
Perturbation started.
Iteration:   101   Dual objective     =             0.000000
Iteration:   195   Dual objective     =             0.660522
Iteration:   282   Dual objective     =             0.774772
Iteration:   349   Dual objective     =             0.857605
Iteration:   435   Dual objective     =             1.027095
Iteration:   513   Dual objective     =             1.086142
Removing perturbation.
Initializing dual steep norms . . .
   4568     0        5.4213   337       82.8071     Cuts: 443   181687   90.84%
   4568     0       10.8826   363       82.8071     Cuts: 471   182046   86.86%
   4568     0       15.3622   391       82.8071     Cuts: 481   182453   81.45%
   4568     0       19.7420   428       82.8071     Cuts: 481   182874   76.16%
   4568     0       23.9434   449       82.8071     Cuts: 442   183406   71.09%
   4568     0       27.4671   473       82.8071     Cuts: 481   183888   66.83%
   4568     0       30.0567   508       82.8071     Cuts: 449   184416   63.70%
*  4568+    0                           77.2578       30.0567            61.10%
Found incumbent of value 77.257798 after 22.77 sec. (16705.44 ticks)
   4568     0       32.4567   527       77.2578     Cuts: 403   184870   57.99%
*  4568+    0                           76.3292       32.4567            57.48%
Found incumbent of value 76.329234 after 22.78 sec. (16723.98 ticks)
   4568     0  -1.00000e+75     0       76.3292       32.4567   184870   57.48%
   4568     0       35.0768   555       76.3292     Cuts: 396   185499   54.05%
   4568     0       37.1232   545       76.3292     Cuts: 383   186110   51.36%
   4568     0       38.8731   589       76.3292     Cuts: 413   186761   49.07%
   4568     0       40.9860   617       76.3292     Cuts: 363   187425   46.30%
   4568     0       43.2683   636       76.3292     Cuts: 405   188153   43.31%
   4568     0       44.5756   665       76.3292     Cuts: 321   188770   41.60%
   4568     0       45.7614   671       76.3292     Cuts: 323   189515   40.05%
   4568     0       46.8434   702       76.3292     Cuts: 296   190248   38.63%
   4568     0       47.5847   726       76.3292     Cuts: 260   191005   37.66%
   4568     0       48.2367   737       76.3292     Cuts: 268   191657   36.80%
*  4568+    0                           75.8251       48.2367            36.38%
Found incumbent of value 75.825088 after 43.55 sec. (31646.30 ticks)
   4568     0       48.8998   745       75.8251     Cuts: 272   192378   35.51%
*  4568+    0                           75.4750       48.8998            35.21%
Found incumbent of value 75.475034 after 45.64 sec. (33126.34 ticks)
   4568     0       49.4588   747       75.4750     Cuts: 251   192997   34.47%
*  4568+    0                           74.8965       49.4588            33.96%
Found incumbent of value 74.896524 after 47.69 sec. (34558.97 ticks)
   4568     0       49.9206   755       74.8965     Cuts: 258   193583   33.35%
   4568     0       50.2579   771       74.8965     Cuts: 239   194199   32.90%
   4568     0       50.5368   788       74.8965     Cuts: 243   194681   32.52%
   4568     0       50.7858   786       74.8965     Cuts: 203   195240   32.19%
   4568     0       51.1295   777       74.8965     Cuts: 209   195859   31.73%
*  4568+    0                           74.1660       51.1295            31.06%
Found incumbent of value 74.166035 after 58.17 sec. (42037.86 ticks)
   4568     0       51.4147   781       74.1660     Cuts: 234   196350   30.68%
   4568     0       51.6417   800       74.1660     Cuts: 178   196748   30.37%
*  4568+    0                           73.9995       51.6417            30.21%
Found incumbent of value 73.999518 after 62.59 sec. (45163.19 ticks)
   4568     0       51.9519   796       73.9995     Cuts: 199   197359   29.79%
   4568     0       52.1636   794       73.9995     Cuts: 204   197935   29.51%
   4568     0       52.4970   798       73.9995     Cuts: 221   198582   29.06%
   4568     0       52.7033   813       73.9995     Cuts: 273   199093   28.78%
   4568     0       52.9146   817       73.9995     Cuts: 186   199653   28.49%
   4568     0       53.1139   820       73.9995     Cuts: 239   200170   28.22%
   4568     0       53.3577   815       73.9995     Cuts: 213   200705   27.89%
   4568     0       53.5611   804       73.9995     Cuts: 182   201296   27.62%
   4568     0       53.7558   823       73.9995     Cuts: 207   201908   27.36%
*  4568+    0                           73.8635       53.7558            27.22%
Found incumbent of value 73.863530 after 82.91 sec. (59672.23 ticks)
   4568     0       53.8357   845       73.8635     Cuts: 174   202306   27.11%
   4568     0       53.9663   827       73.8635     Cuts: 164   202867   26.94%
   4568     0       54.1025   831       73.8635     Cuts: 178   203394   26.75%
   4568     0       54.2172   826       73.8635     Cuts: 169   203785   26.60%
   4568     0       54.3791   833       73.8635     Cuts: 200   204329   26.38%
*  4568+    0                           73.5247       54.3791            26.04%
Found incumbent of value 73.524735 after 94.19 sec. (67773.16 ticks)
   4568     0       54.5140   844       73.5247     Cuts: 168   204837   25.86%
*  4568+    0                           73.4212       54.5140            25.75%
Found incumbent of value 73.421190 after 96.48 sec. (69459.05 ticks)
   4568     0       54.5906   842       73.4212     Cuts: 165   205214   25.65%
   4568     0       54.7081   848       73.4212     Cuts: 179   205760   25.49%
   4568     0       54.7806   853       73.4212     Cuts: 178   206173   25.39%
*  4568+    0                           73.0686       54.7806            25.03%
Found incumbent of value 73.068576 after 101.00 sec. (72722.15 ticks)
   4568     0       54.8653   854       73.0686     Cuts: 140   206637   24.91%
   4568     0       55.0055   844       73.0686     Cuts: 163   207284   24.72%
   4568     0       55.0963   849       73.0686     Cuts: 167   207713   24.60%
   4568     0       55.1704   852       73.0686     Cuts: 161   208162   24.50%
   4568     0       55.2551   854       73.0686     Cuts: 141   208652   24.38%
   4568     0       55.3586   855       73.0686     Cuts: 121   209080   24.24%
   4568     0       55.4420   855       73.0686     Cuts: 155   209520   24.12%
   4568     0       55.5312   858       73.0686     Cuts: 159   209942   24.00%
   4568     0       55.6094   856       73.0686     Cuts: 155   210377   23.89%
   4568     0       55.6637   877       73.0686     Cuts: 151   210747   23.82%
*  4568+    0                           72.9443       55.6637            23.69%
Found incumbent of value 72.944285 after 128.84 sec. (91016.67 ticks)
   4568     0       55.7241   869       72.9443     Cuts: 113   211188   23.61%
   4568     0       55.8106   871       72.9443     Cuts: 137   211629   23.49%
   4568     0       55.9151   861       72.9443     Cuts: 141   212063   23.35%
   4568     0       55.9598   875       72.9443     Cuts: 131   212375   23.28%
   4568     0       56.0187   858       72.9443     Cuts: 123   212806   23.20%
*  4568+    0                           72.8893       56.0187            23.15%
Found incumbent of value 72.889315 after 140.63 sec. (99207.25 ticks)
   4568     0       56.0636   870       72.8893     Cuts: 150   213204   23.08%
   4568     0       56.0923   884       72.8893     Cuts: 113   213497   23.04%
   4568     0       56.1139   879       72.8893     Cuts: 116   213740   23.01%
   4568     0       56.1469   880       72.8893     Cuts: 118   214087   22.97%
   4568     0       56.2084   870       72.8893     Cuts: 109   214520   22.89%
   4568     0       56.2544   869       72.8893     Cuts: 121   214889   22.82%
   4568     0       56.2894   889       72.8893     Cuts: 120   215164   22.77%
   4568     0       56.3429   868       72.8893      Cuts: 85   215524   22.70%
   4568     0       56.3928   865       72.8893     Cuts: 125   215908   22.63%
   4568     0       56.4220   872       72.8893     Cuts: 114   216224   22.59%
   4568     0       56.4754   865       72.8893     Cuts: 133   216632   22.52%
   4568     0       56.5197   872       72.8893     Cuts: 117   216979   22.46%
   4568     0       56.5628   879       72.8893     Cuts: 134   217366   22.40%
   4568     0       56.6054   873       72.8893     Cuts: 131   217704   22.34%
   4568     0       56.6379   869       72.8893     Cuts: 135   218038   22.30%
   4568     2       56.6379   869       72.8893       56.6379   218038   22.30%
   4570     4       56.6858   841       72.8893       56.6547   218406   22.27%
   4572     3       56.9029   819       72.8893       56.6547   219206   22.27%
   4573     4       56.9161   807       72.8893       56.6547   219276   22.27%
                                                    Cuts: 108                  
   4576     8       58.5802   801       72.8893       56.8957   223938   21.94%
                                                    Cuts: 112                  
   4580     9       59.5328   777       72.8893       56.8957   224318   21.94%
   4585    13       62.1776   762       72.8893       56.8957   230829   21.94%
                                                     Cuts: 87                  
   4613    29       60.2899   817       72.8893       57.8856   246801   20.58%
                                                    Cuts: 216                  
Elapsed time = 181.66 sec. (129316.99 ticks, tree = 0.02 MB)
   4651    50       60.4611   821       72.8893       58.0685   257202   20.33%
                                                     Cuts: 43                  
   4694    91       62.0600   785       72.8893       58.4408   290611   19.82%
                                                     Cuts: 72                  
   4768   145       61.9041   808       72.8893       58.4408   334714   19.82%
   4915   270       61.7495   785       72.8893       58.4408   387863   19.82%
*  5034+  255                           72.3177       58.4408            19.19%
Found incumbent of value 72.317733 after 187.75 sec. (133784.50 ticks)
   5110   337       65.4144   537       72.3177       58.4408   410964   19.19%
*  5118+  388                           72.1078       58.4408            18.95%
Found incumbent of value 72.107776 after 188.27 sec. (134181.05 ticks)
*  5137+  425                           64.4803       58.4408             9.37%
Found incumbent of value 64.480322 after 188.42 sec. (134294.53 ticks)
*  5152+  424                           64.3169       58.4408             9.14%
Found incumbent of value 64.316852 after 188.53 sec. (134380.32 ticks)
*  5217+  404                           64.3096       58.4408             9.13%
Found incumbent of value 64.309626 after 188.88 sec. (134660.52 ticks)
   5285   525       65.1173   746       64.3096       58.5437   480276    8.97%
   5435   482        cutoff             64.3096       58.5437   546636    8.97%
                                                     Cuts: 44                  
   5561   578       62.8232   812       64.3096       59.7234   611005    7.13%
                                                     Cuts: 26                  
   5733   744       63.0494   823       64.3096       59.7234   701187    7.13%
   5902   763       63.2078   812       64.3096       59.7800   718903    7.04%
                                                     Cuts: 59                  
Elapsed time = 194.41 sec. (138918.69 ticks, tree = 0.48 MB)
   6075   918       64.2712   797       64.3096       60.2854   815778    6.26%
                                                     Cuts: 66                  
   6268  1016       62.4592   849       64.3096       60.2854   853866    6.26%
                                                     Cuts: 38                  
*  6351  1070      integral     0       63.4162       60.2854   882188    4.94%
                                                     Cuts: 19                  
Found incumbent of value 63.416161 after 197.50 sec. (141190.73 ticks)
   6461  1095       63.4083   616       63.4162       60.3385   891809    4.85%
                                                     Cuts: 16                  
   6575   828       63.1583   832       63.4162       60.5207   917085    4.57%
                                                     Cuts: 27                  
   6656  1011       62.7127   862       63.4162       60.7948  1019343    4.13%
                                                     Cuts: 44                  
   6785  1029       62.7607   878       63.4162       60.8720  1045185    4.01%
                                                      Cuts: 9                  
*  6884+ 1025                           63.3806       60.8746             3.95%
                                                      Cuts: 9                  
Found incumbent of value 63.380645 after 203.08 sec. (145315.58 ticks)
   6945  1077       62.9885   786       63.3806       60.8966  1096225    3.92%
                                                     Cuts: 18                  
   7083  1079       61.7622   866       63.3806       61.0005  1099834    3.76%
                                                     Cuts: 24                  
   7224  1113       62.4309   871       63.3806       61.0410  1141316    3.69%
                                                     Cuts: 53                  
   7355  1243       63.3303   858       63.3806       61.1046  1227941    3.59%
                                                     Cuts: 12                  
Elapsed time = 207.67 sec. (148513.32 ticks, tree = 0.93 MB)
   7426  1335       62.9945   832       63.3806       61.1916  1325596    3.45%
                                                     Cuts: 29                  
   7507  1353       62.9330   840       63.3806       61.2631  1351812    3.34%
                                                      Cuts: 8                  
*  7520+ 1324                           62.5834       61.2655             2.11%
                                                  LiftProj: 1                  
Found incumbent of value 62.583390 after 210.52 sec. (150526.88 ticks)
   7622  1355        cutoff             62.5834       61.2914  1364207    2.06%
                                                     Cuts: 19                  
*  7710   627      integral     0       62.4447       61.3891  1437494    1.69%
                                                      Cuts: 8                  
Found incumbent of value 62.444674 after 212.70 sec. (152122.41 ticks)
   7796   641       62.5185   903       62.4447       61.4724  1425289    1.56%
                                                     Cuts: 27                  
   7928   398        cutoff             62.4447       61.6191  1585433    1.32%
                                                     Cuts: 14                  
   8182   170        cutoff             62.4447       62.1442  1668635    0.48%
                                                  LiftProj: 3                  

GUB cover cuts applied:  0
Clique cuts applied:  0
Cover cuts applied:  0
Implied bound cuts applied:  0
Flow cuts applied:  0
Mixed integer rounding cuts applied:  0
Flow path cuts applied:  0
Zero-half cuts applied:  1241
Multi commodity flow cuts applied:  0
Lift and project cuts applied:  742
Gomory fractional cuts applied:  5
Disjunctive cuts applied:  7
Cone linearizations applied:  0

Root node processing (before b&c):
  Real time             =    1.37 sec. (1272.48 ticks)
Parallel b&c, 16 threads:
  Real time             =  215.52 sec. (153891.86 ticks)
  Sync time (average)   =    4.94 sec.
  Wait time (average)   =    0.02 sec.
                          ------------
Total (root+branch&cut) =  216.89 sec. (155164.34 ticks)

--- MIQP status (102): integer optimal, tolerance.
--- Cplex Time: 216.98sec (det. 155164.34 ticks)

--- Fixing integer variables and solving final QP...

Version identifier: 22.1.0.0 | 2022-03-09 | 1a383f8ce
CPXPARAM_Advance                                 2
CPXPARAM_MIP_Cuts_Cliques                        3
CPXPARAM_MIP_Cuts_Covers                         3
CPXPARAM_MIP_Display                             4
CPXPARAM_MIP_Cuts_FlowCovers                     2
CPXPARAM_MIP_Cuts_Implied                        2
CPXPARAM_MIP_Cuts_GUBCovers                      2
CPXPARAM_MIP_Cuts_Gomory                         2
CPXPARAM_MIP_Cuts_PathCut                        2
CPXPARAM_MIP_Cuts_MIRCut                         2
CPXPARAM_MIP_Cuts_Disjunctive                    3
CPXPARAM_Preprocessing_Symmetry                  5
CPXPARAM_MIP_Pool_Capacity                       0
CPXPARAM_MIP_Cuts_ZeroHalfCut                    2
CPXPARAM_MIP_Cuts_MCFCut                         2
CPXPARAM_MIP_Cuts_LiftProj                       3
CPXPARAM_MIP_Cuts_LocalImplied                   3
CPXPARAM_MIP_Cuts_BQP                            3
CPXPARAM_MIP_Tolerances_AbsMIPGap                0
Number of nonzeros in lower triangle of Q = 1455
Using Approximate Minimum Degree ordering
Total time for automatic ordering = 0.02 sec. (0.11 ticks)
Summary statistics for factor of Q:
  Rows in Factor            = 300
  Integer space required    = 375
  Total non-zeros in factor = 3930
  Total FP ops to factor    = 59820
Note: Q in objective is not positive semi-definite.
Tried aggregator 1 time.
QP Presolve eliminated 100 rows and 301 columns.
All rows and columns eliminated.
Presolve time = 0.02 sec. (0.44 ticks)

--- Fixed MIQP status (1): optimal.
--- Cplex Time: 0.03sec (det. 0.69 ticks)


Solution satisfies tolerances
MIP Solution:           62.444674    (1681459 iterations, 8326 nodes)
Final Solve:            62.444674    (0 iterations)

Best possible:          62.438838
Absolute gap:            0.005837
Relative gap:            0.000093

--- Reading solution for model mod
--- Executing after solve: elapsed 0:03:37.122
--- Untitled_6.gms(29) 4 Mb
*** Status: Normal completion
--- Job Untitled_6.gms Stop 06/27/22 15:54:43 elapsed 0:03:37.123
